32      3       
16      13      21      
0       0       0       0       3       2       3       4       
1       9       4       0       1       30      
8       0       0       7       3       8       14      21      
6       0       10      0       3       5       6       12      
10      0       0       6       3       9       10      11      
8       1       0       5       2       7       17      
6       0       0       6       3       15      19      26      
1       6       8       10      1       17      
8       5       0       0       1       13      
5       6       0       7       2       18      28      
7       9       6       6       1       23      
1       0       3       0       2       22      28      
9       7       0       9       1       24      
8       10      3       4       2       16      25      
2       0       0       8       1       16      
10      1       0       0       1       28      
6       0       0       4       1       31      
9       0       9       0       1       24      
6       0       0       7       1       20      
4       1       4       10      2       27      29      
5       5       0       4       2       22      30      
6       0       5       9       1       24      
7       10      0       0       1       25      
7       0       1       10      1       25      
1       1       0       0       2       26      27      
5       0       0       10      1       31      
8       9       0       0       1       31      
7       3       0       0       1       30      
5       0       0       3       1       32      
6       0       6       3       1       32      
8       0       8       0       1       32      
0       0       0       0       0       